c p_entity_Smith(c_other3) p_set_lecturers(c_other3) p_entity_Jones(c_other3) p_schedule_LEQ(c_other3,c_other3) LEQ(c_other3,c_other3) LEQ(c_other1,c_other3) p_schedule_LEQ(c_other3,c_other1) p_schedule_LEQ(c_other1,c_other3) p_set_lecturers(c_other1) p_entity_Jones(c_other1) p_entity_Smith(c_other1) LEQ(c_other3,c_other1) p_schedule_LEQ(c_Smith,c_other3) LEQ(c_other3,c_Smith) LEQ(c_Smith,c_other3) p_schedule_LEQ(c_other3,c_Smith) p_set_lecturers(c_Smith) p_entity_Smith(c_Smith) p_entity_Jones(c_Smith) LEQ(c_other0,c_other3) p_entity_Smith(c_other0) LEQ(c_other3,c_other0) p_schedule_LEQ(c_other0,c_other3) p_entity_Jones(c_other0) p_set_lecturers(c_other0) p_schedule_LEQ(c_other3,c_other0) p_schedule_LEQ(c_other3,c_other2) p_schedule_LEQ(c_other2,c_other3) p_entity_Smith(c_other2) LEQ(c_other3,c_other2) p_entity_Jones(c_other2) LEQ(c_other2,c_other3) p_set_lecturers(c_other2) p_schedule_LEQ(c_other3,c_Jones) p_schedule_LEQ(c_Jones,c_other3) p_entity_Jones(c_Jones) p_entity_Smith(c_Jones) p_set_lecturers(c_Jones) LEQ(c_other3,c_Jones) LEQ(c_Jones,c_other3) LEQ(c_other1,c_other1) p_schedule_LEQ(c_other1,c_other1) p_schedule_LEQ(c_Smith,c_other1) LEQ(c_Smith,c_other1) LEQ(c_other1,c_Smith) p_schedule_LEQ(c_other1,c_Smith) p_schedule_LEQ(c_other1,c_other0) LEQ(c_other0,c_other1) p_schedule_LEQ(c_other0,c_other1) LEQ(c_other1,c_other0) LEQ(c_other2,c_other1) LEQ(c_other1,c_other2) p_schedule_LEQ(c_other1,c_other2) p_schedule_LEQ(c_other2,c_other1) LEQ(c_other1,c_Jones) LEQ(c_Jones,c_other1) p_schedule_LEQ(c_other1,c_Jones) p_schedule_LEQ(c_Jones,c_other1) LEQ(c_Smith,c_Smith) p_schedule_LEQ(c_Smith,c_Smith) LEQ(c_Smith,c_other0) p_schedule_LEQ(c_Smith,c_other0) LEQ(c_other0,c_Smith) p_schedule_LEQ(c_other0,c_Smith) p_schedule_LEQ(c_Smith,c_other2) LEQ(c_other2,c_Smith) p_schedule_LEQ(c_other2,c_Smith) LEQ(c_Smith,c_other2) p_schedule_LEQ(c_Jones,c_Smith) LEQ(c_Smith,c_Jones) p_schedule_LEQ(c_Smith,c_Jones) LEQ(c_Jones,c_Smith) p_schedule_LEQ(c_other0,c_other0) LEQ(c_other0,c_other0) p_schedule_LEQ(c_other0,c_other2) LEQ(c_other0,c_other2) LEQ(c_other2,c_other0) p_schedule_LEQ(c_other2,c_other0) p_schedule_LEQ(c_Jones,c_other0) LEQ(c_Jones,c_other0) LEQ(c_other0,c_Jones) p_schedule_LEQ(c_other0,c_Jones) LEQ(c_other2,c_other2) p_schedule_LEQ(c_other2,c_other2) LEQ(c_other2,c_Jones) p_schedule_LEQ(c_other2,c_Jones) p_schedule_LEQ(c_Jones,c_other2) LEQ(c_Jones,c_other2) LEQ(c_Jones,c_Jones) p_schedule_LEQ(c_Jones,c_Jones)
c 1 2 3 4 5 6 7 8 9 10 11 12 13 14 15 16 17 18 19 20 21 22 23 24 25 26 27 28 29 30 31 32 33 34 35 36 37 38 39 40 41 42 43 44 45 46 47 48 49 50 51 52 53 54 55 56 57 58 59 60 61 62 63 64 65 66 67 68 69 70 71 72 73 74 75 76 77 78 79 80 81 82 83 84 85 86 87 88 89 90
p cnf 90 384
89 -90 0
72 -69 0
80 -79 0
56 -58 0
88 -87 0
40 -35 0
70 -71 0
59 -60 0
61 -62 0
44 -43 0
68 -65 0
15 -13 0
81 -82 0
63 -64 0
74 -73 0
48 -49 0
76 -75 0
20 -23 0
55 -57 0
45 -46 0
50 -47 0
41 -42 0
52 -53 0
6 -8 0
85 -86 0
66 -67 0
77 -78 0
51 -54 0
83 -84 0
32 -28 0
39 -34 0
14 -16 0
22 -26 0
12 -7 0
30 -27 0
5 -4 0
38 -90 0
38 -69 0
38 -79 0
38 -58 0
38 -87 0
38 -35 0
38 -71 0
38 -82 0
38 -57 0
38 -86 0
38 -34 0
17 -69 0
17 -71 0
17 -60 0
17 -62 0
17 -43 0
17 -65 0
17 -13 0
17 -64 0
17 -46 0
17 -67 0
17 -16 0
25 -79 0
25 -62 0
25 -82 0
25 -64 0
25 -73 0
25 -49 0
25 -75 0
25 -23 0
25 -47 0
25 -78 0
25 -26 0
9 -58 0
9 -43 0
9 -49 0
9 -57 0
9 -46 0
9 -47 0
9 -42 0
9 -53 0
9 -8 0
9 -54 0
9 -7 0
33 -87 0
33 -65 0
33 -75 0
33 -53 0
33 -86 0
33 -67 0
33 -78 0
33 -54 0
33 -84 0
33 -28 0
33 -27 0
2 -35 0
2 -13 0
2 -23 0
2 -8 0
2 -28 0
2 -34 0
2 -16 0
2 -26 0
2 -7 0
2 -27 0
2 -4 0
89 38 -38 0
72 17 -38 0
80 25 -38 0
56 9 -38 0
88 33 -38 0
40 2 -38 0
70 38 -17 0
59 17 -17 0
61 25 -17 0
44 9 -17 0
68 33 -17 0
15 2 -17 0
81 38 -25 0
63 17 -25 0
74 25 -25 0
48 9 -25 0
76 33 -25 0
20 2 -25 0
55 38 -9 0
45 17 -9 0
50 25 -9 0
41 9 -9 0
52 33 -9 0
6 2 -9 0
85 38 -33 0
66 17 -33 0
77 25 -33 0
51 9 -33 0
83 33 -33 0
32 2 -33 0
39 38 -2 0
14 17 -2 0
22 25 -2 0
12 9 -2 0
30 33 -2 0
5 2 -2 0
90 -89 -38 0
90 -36 -37 0
69 -36 -18 0
79 -36 -21 0
58 -36 -11 0
87 -36 -29 0
35 -36 -1 0
71 -19 -37 0
60 -59 -17 0
60 -19 -18 0
62 -19 -21 0
43 -19 -11 0
65 -19 -29 0
13 -19 -1 0
82 -24 -37 0
64 -24 -18 0
73 -74 -25 0
73 -24 -21 0
49 -24 -11 0
75 -24 -29 0
23 -24 -1 0
57 -10 -37 0
46 -10 -18 0
47 -10 -21 0
42 -41 -9 0
42 -10 -11 0
53 -10 -29 0
8 -10 -1 0
86 -31 -37 0
67 -31 -18 0
78 -31 -21 0
54 -31 -11 0
84 -83 -33 0
84 -31 -29 0
28 -31 -1 0
34 -3 -37 0
16 -3 -18 0
26 -3 -21 0
7 -3 -11 0
27 -3 -29 0
4 -5 -2 0
4 -3 -1 0
69 -72 -38 -17 0
79 -80 -38 -25 0
58 -56 -38 -9 0
87 -88 -38 -33 0
35 -40 -38 -2 0
71 -70 -38 -17 0
62 -61 -17 -25 0
43 -44 -17 -9 0
65 -68 -17 -33 0
13 -15 -17 -2 0
82 -81 -38 -25 0
64 -63 -17 -25 0
49 -48 -25 -9 0
75 -76 -25 -33 0
23 -20 -25 -2 0
57 -55 -38 -9 0
46 -45 -17 -9 0
47 -50 -25 -9 0
53 -52 -9 -33 0
8 -6 -9 -2 0
86 -85 -38 -33 0
67 -66 -17 -33 0
78 -77 -25 -33 0
54 -51 -9 -33 0
28 -32 -33 -2 0
34 -39 -38 -2 0
16 -14 -17 -2 0
26 -22 -25 -2 0
7 -12 -9 -2 0
27 -30 -33 -2 0
-31 0
-11 0
-19 0
36 0
-1 0
38 0
9 0
-37 0
2 0
17 0
25 0
-10 0
-21 0
-29 0
-3 0
33 0
-24 0
18 0
89 0
72 70 0
-72 -70 0
-72 -61 80 0
-72 -44 56 0
-72 -68 88 0
-72 -15 40 0
80 81 0
-80 -81 0
-80 -63 72 0
-80 -48 56 0
-80 -76 88 0
-80 -20 40 0
56 55 0
-56 -55 0
-56 -45 72 0
-56 -50 80 0
-56 -52 88 0
-56 -6 40 0
88 85 0
-88 -85 0
-88 -66 72 0
-88 -77 80 0
-88 -51 56 0
-88 -32 40 0
40 39 0
-40 -39 0
-40 -14 72 0
-40 -22 80 0
-40 -12 56 0
-40 -30 88 0
59 0
-70 -80 61 0
-70 -56 44 0
-70 -88 68 0
-70 -40 15 0
61 63 0
-61 -63 0
-61 -81 70 0
-61 -48 44 0
-61 -76 68 0
-61 -20 15 0
44 45 0
-44 -45 0
-44 -55 70 0
-44 -50 61 0
-44 -52 68 0
-44 -6 15 0
68 66 0
-68 -66 0
-68 -85 70 0
-68 -77 61 0
-68 -51 44 0
-68 -32 15 0
15 14 0
-15 -14 0
-15 -39 70 0
-15 -22 61 0
-15 -12 44 0
-15 -30 68 0
74 0
-81 -72 63 0
-81 -56 48 0
-81 -88 76 0
-81 -40 20 0
-63 -70 81 0
-63 -44 48 0
-63 -68 76 0
-63 -15 20 0
48 50 0
-48 -50 0
-48 -55 81 0
-48 -45 63 0
-48 -52 76 0
-48 -6 20 0
76 77 0
-76 -77 0
-76 -85 81 0
-76 -66 63 0
-76 -51 48 0
-76 -32 20 0
20 22 0
-20 -22 0
-20 -39 81 0
-20 -14 63 0
-20 -12 48 0
-20 -30 76 0
41 0
-55 -72 45 0
-55 -80 50 0
-55 -88 52 0
-55 -40 6 0
-45 -70 55 0
-45 -61 50 0
-45 -68 52 0
-45 -15 6 0
-50 -81 55 0
-50 -63 45 0
-50 -76 52 0
-50 -20 6 0
52 51 0
-52 -51 0
-52 -85 55 0
-52 -66 45 0
-52 -77 50 0
-52 -32 6 0
6 12 0
-6 -12 0
-6 -39 55 0
-6 -14 45 0
-6 -22 50 0
-6 -30 52 0
83 0
-85 -72 66 0
-85 -80 77 0
-85 -56 51 0
-85 -40 32 0
-66 -70 85 0
-66 -61 77 0
-66 -44 51 0
-66 -15 32 0
-77 -81 85 0
-77 -63 66 0
-77 -48 51 0
-77 -20 32 0
-51 -55 85 0
-51 -45 66 0
-51 -50 77 0
-51 -6 32 0
32 30 0
-32 -30 0
-32 -39 85 0
-32 -14 66 0
-32 -22 77 0
-32 -12 51 0
5 0
-39 -72 14 0
-39 -80 22 0
-39 -56 12 0
-39 -88 30 0
-14 -70 39 0
-14 -61 22 0
-14 -44 12 0
-14 -68 30 0
-22 -81 39 0
-22 -63 14 0
-22 -48 12 0
-22 -76 30 0
-12 -55 39 0
-12 -45 14 0
-12 -50 22 0
-12 -52 30 0
-30 -85 39 0
-30 -66 14 0
-30 -77 22 0
-30 -51 12 0
